(declare-fun x1 () Real)
(declare-fun x2 () Real)
(declare-fun x3 () Real)
(declare-fun x4 () Real)
(declare-fun x5 () Real)
(declare-fun x6 () Real)
(declare-fun x7 () Real)
(declare-fun x8 () Real)
(declare-fun x9 () Real)
(declare-fun x10 () Real)
(assert ( and 
( or  (<= (+  (* 1 x1) ) 532) ) 
( or  (<= (+  (* 1 x1)  (* 1 x2) ) 532)  (<= (+  (* 2 x1)  (* 1 x2) ) 678) ) 
( or  (<= (+  (* 2 x1)  (* 2 x2)  (* 1 x3) ) 1064)  (<= (+  (* 3 x1)  (* 2 x2)  (* 1 x3) ) 1356)  (<= (+  (* 3 x1)  (* 3 x2)  (* 1 x3) ) 1428) ) 
( or  (<= (+  (* 2 x1)  (* 2 x2)  (* 1 x3)  (* 1 x4) ) 1064)  (<= (+  (* 3 x1)  (* 2 x2)  (* 1 x3)  (* 1 x4) ) 1356)  (<= (+  (* 3 x1)  (* 3 x2)  (* 1 x3)  (* 1 x4) ) 1428)  (<= (+  (* 5 x1)  (* 4 x2)  (* 2 x3)  (* 1 x4) ) 2660)  (<= (+  (* 6 x1)  (* 4 x2)  (* 2 x3)  (* 1 x4) ) 2712)  (<= (+  (* 6 x1)  (* 5 x2)  (* 2 x3)  (* 1 x4) ) 2757) ) 
( or  (<= (+  (* 2 x1)  (* 2 x2)  (* 1 x3)  (* 1 x4)  (* 1 x5) ) 1064)  (<= (+  (* 3 x1)  (* 2 x2)  (* 1 x3)  (* 1 x4)  (* 1 x5) ) 1356)  (<= (+  (* 3 x1)  (* 3 x2)  (* 1 x3)  (* 1 x4)  (* 1 x5) ) 1428)  (<= (+  (* 5 x1)  (* 4 x2)  (* 2 x3)  (* 1 x4)  (* 1 x5) ) 2660)  (<= (+  (* 6 x1)  (* 4 x2)  (* 2 x3)  (* 1 x4)  (* 1 x5) ) 2712)  (<= (+  (* 6 x1)  (* 5 x2)  (* 2 x3)  (* 1 x4)  (* 1 x5) ) 2757)  (<= (+  (* 6 x1)  (* 5 x2)  (* 2 x3)  (* 2 x4)  (* 1 x5) ) 2856)  (<= (+  (* 6 x1)  (* 5 x2)  (* 3 x3)  (* 2 x4)  (* 1 x5) ) 3180) ) 
( or  (<= (+  (* 2 x1)  (* 2 x2)  (* 1 x3)  (* 1 x4)  (* 1 x5)  (* 1 x6) ) 1064)  (<= (+  (* 3 x1)  (* 2 x2)  (* 1 x3)  (* 1 x4)  (* 1 x5)  (* 1 x6) ) 1356)  (<= (+  (* 3 x1)  (* 3 x2)  (* 1 x3)  (* 1 x4)  (* 1 x5)  (* 1 x6) ) 1428)  (<= (+  (* 5 x1)  (* 4 x2)  (* 2 x3)  (* 1 x4)  (* 1 x5)  (* 1 x6) ) 2660)  (<= (+  (* 6 x1)  (* 4 x2)  (* 2 x3)  (* 1 x4)  (* 1 x5)  (* 1 x6) ) 2712)  (<= (+  (* 6 x1)  (* 5 x2)  (* 2 x3)  (* 1 x4)  (* 1 x5)  (* 1 x6) ) 2757)  (<= (+  (* 6 x1)  (* 5 x2)  (* 2 x3)  (* 2 x4)  (* 1 x5)  (* 1 x6) ) 2856)  (<= (+  (* 6 x1)  (* 5 x2)  (* 3 x3)  (* 2 x4)  (* 1 x5)  (* 1 x6) ) 3180)  (<= (+  (* 7 x1)  (* 6 x2)  (* 3 x3)  (* 2 x4)  (* 2 x5)  (* 1 x6) ) 3724)  (<= (+  (* 8 x1)  (* 6 x2)  (* 3 x3)  (* 2 x4)  (* 2 x5)  (* 1 x6) ) 4068)  (<= (+  (* 8 x1)  (* 7 x2)  (* 3 x3)  (* 2 x4)  (* 2 x5)  (* 1 x6) ) 4083) ) 
( or  (<= (+  (* 2 x1)  (* 2 x2)  (* 1 x3)  (* 1 x4)  (* 1 x5)  (* 1 x6)  (* 1 x7) ) 1064)  (<= (+  (* 3 x1)  (* 2 x2)  (* 1 x3)  (* 1 x4)  (* 1 x5)  (* 1 x6)  (* 1 x7) ) 1356)  (<= (+  (* 3 x1)  (* 3 x2)  (* 1 x3)  (* 1 x4)  (* 1 x5)  (* 1 x6)  (* 1 x7) ) 1428)  (<= (+  (* 5 x1)  (* 4 x2)  (* 2 x3)  (* 1 x4)  (* 1 x5)  (* 1 x6)  (* 1 x7) ) 2660)  (<= (+  (* 6 x1)  (* 4 x2)  (* 2 x3)  (* 1 x4)  (* 1 x5)  (* 1 x6)  (* 1 x7) ) 2712)  (<= (+  (* 6 x1)  (* 5 x2)  (* 2 x3)  (* 1 x4)  (* 1 x5)  (* 1 x6)  (* 1 x7) ) 2757)  (<= (+  (* 6 x1)  (* 5 x2)  (* 2 x3)  (* 2 x4)  (* 1 x5)  (* 1 x6)  (* 1 x7) ) 2856)  (<= (+  (* 6 x1)  (* 5 x2)  (* 3 x3)  (* 2 x4)  (* 1 x5)  (* 1 x6)  (* 1 x7) ) 3180)  (<= (+  (* 7 x1)  (* 6 x2)  (* 3 x3)  (* 2 x4)  (* 2 x5)  (* 1 x6)  (* 1 x7) ) 3724)  (<= (+  (* 8 x1)  (* 6 x2)  (* 3 x3)  (* 2 x4)  (* 2 x5)  (* 1 x6)  (* 1 x7) ) 4068)  (<= (+  (* 8 x1)  (* 7 x2)  (* 3 x3)  (* 2 x4)  (* 2 x5)  (* 1 x6)  (* 1 x7) ) 4083)  (<= (+  (* 8 x1)  (* 7 x2)  (* 3 x3)  (* 2 x4)  (* 2 x5)  (* 2 x6)  (* 1 x7) ) 4256)  (<= (+  (* 9 x1)  (* 7 x2)  (* 3 x3)  (* 2 x4)  (* 2 x5)  (* 2 x6)  (* 1 x7) ) 4284)  (<= (+  (* 9 x1)  (* 7 x2)  (* 4 x3)  (* 2 x4)  (* 2 x5)  (* 2 x6)  (* 1 x7) ) 4534) ) 
( or  (<= (+  (* 2 x1)  (* 2 x2)  (* 1 x3)  (* 1 x4)  (* 1 x5)  (* 1 x6)  (* 1 x7)  (* 1 x8) ) 1064)  (<= (+  (* 3 x1)  (* 2 x2)  (* 1 x3)  (* 1 x4)  (* 1 x5)  (* 1 x6)  (* 1 x7)  (* 1 x8) ) 1356)  (<= (+  (* 3 x1)  (* 3 x2)  (* 1 x3)  (* 1 x4)  (* 1 x5)  (* 1 x6)  (* 1 x7)  (* 1 x8) ) 1428)  (<= (+  (* 5 x1)  (* 4 x2)  (* 2 x3)  (* 1 x4)  (* 1 x5)  (* 1 x6)  (* 1 x7)  (* 1 x8) ) 2660)  (<= (+  (* 6 x1)  (* 4 x2)  (* 2 x3)  (* 1 x4)  (* 1 x5)  (* 1 x6)  (* 1 x7)  (* 1 x8) ) 2712)  (<= (+  (* 6 x1)  (* 5 x2)  (* 2 x3)  (* 1 x4)  (* 1 x5)  (* 1 x6)  (* 1 x7)  (* 1 x8) ) 2757)  (<= (+  (* 6 x1)  (* 5 x2)  (* 2 x3)  (* 2 x4)  (* 1 x5)  (* 1 x6)  (* 1 x7)  (* 1 x8) ) 2856)  (<= (+  (* 6 x1)  (* 5 x2)  (* 3 x3)  (* 2 x4)  (* 1 x5)  (* 1 x6)  (* 1 x7)  (* 1 x8) ) 3180)  (<= (+  (* 7 x1)  (* 6 x2)  (* 3 x3)  (* 2 x4)  (* 2 x5)  (* 1 x6)  (* 1 x7)  (* 1 x8) ) 3724)  (<= (+  (* 8 x1)  (* 6 x2)  (* 3 x3)  (* 2 x4)  (* 2 x5)  (* 1 x6)  (* 1 x7)  (* 1 x8) ) 4068)  (<= (+  (* 8 x1)  (* 7 x2)  (* 3 x3)  (* 2 x4)  (* 2 x5)  (* 1 x6)  (* 1 x7)  (* 1 x8) ) 4083)  (<= (+  (* 8 x1)  (* 7 x2)  (* 3 x3)  (* 2 x4)  (* 2 x5)  (* 2 x6)  (* 1 x7)  (* 1 x8) ) 4256)  (<= (+  (* 9 x1)  (* 7 x2)  (* 3 x3)  (* 2 x4)  (* 2 x5)  (* 2 x6)  (* 1 x7)  (* 1 x8) ) 4284)  (<= (+  (* 9 x1)  (* 7 x2)  (* 4 x3)  (* 2 x4)  (* 2 x5)  (* 2 x6)  (* 1 x7)  (* 1 x8) ) 4534)  (<= (+  (* 9 x1)  (* 7 x2)  (* 4 x3)  (* 2 x4)  (* 2 x5)  (* 2 x6)  (* 2 x7)  (* 1 x8) ) 4572) ) 
( or  (<= (+  (* 2 x1)  (* 2 x2)  (* 1 x3)  (* 1 x4)  (* 1 x5)  (* 1 x6)  (* 1 x7)  (* 1 x8)  (* 1 x9) ) 1064)  (<= (+  (* 3 x1)  (* 2 x2)  (* 1 x3)  (* 1 x4)  (* 1 x5)  (* 1 x6)  (* 1 x7)  (* 1 x8)  (* 1 x9) ) 1356)  (<= (+  (* 3 x1)  (* 3 x2)  (* 1 x3)  (* 1 x4)  (* 1 x5)  (* 1 x6)  (* 1 x7)  (* 1 x8)  (* 1 x9) ) 1428)  (<= (+  (* 5 x1)  (* 4 x2)  (* 2 x3)  (* 1 x4)  (* 1 x5)  (* 1 x6)  (* 1 x7)  (* 1 x8)  (* 1 x9) ) 2660)  (<= (+  (* 6 x1)  (* 4 x2)  (* 2 x3)  (* 1 x4)  (* 1 x5)  (* 1 x6)  (* 1 x7)  (* 1 x8)  (* 1 x9) ) 2712)  (<= (+  (* 6 x1)  (* 5 x2)  (* 2 x3)  (* 1 x4)  (* 1 x5)  (* 1 x6)  (* 1 x7)  (* 1 x8)  (* 1 x9) ) 2757)  (<= (+  (* 6 x1)  (* 5 x2)  (* 2 x3)  (* 2 x4)  (* 1 x5)  (* 1 x6)  (* 1 x7)  (* 1 x8)  (* 1 x9) ) 2856)  (<= (+  (* 6 x1)  (* 5 x2)  (* 3 x3)  (* 2 x4)  (* 1 x5)  (* 1 x6)  (* 1 x7)  (* 1 x8)  (* 1 x9) ) 3180)  (<= (+  (* 7 x1)  (* 6 x2)  (* 3 x3)  (* 2 x4)  (* 2 x5)  (* 1 x6)  (* 1 x7)  (* 1 x8)  (* 1 x9) ) 3724)  (<= (+  (* 8 x1)  (* 6 x2)  (* 3 x3)  (* 2 x4)  (* 2 x5)  (* 1 x6)  (* 1 x7)  (* 1 x8)  (* 1 x9) ) 4068)  (<= (+  (* 8 x1)  (* 7 x2)  (* 3 x3)  (* 2 x4)  (* 2 x5)  (* 1 x6)  (* 1 x7)  (* 1 x8)  (* 1 x9) ) 4083)  (<= (+  (* 8 x1)  (* 7 x2)  (* 3 x3)  (* 2 x4)  (* 2 x5)  (* 2 x6)  (* 1 x7)  (* 1 x8)  (* 1 x9) ) 4256)  (<= (+  (* 9 x1)  (* 7 x2)  (* 3 x3)  (* 2 x4)  (* 2 x5)  (* 2 x6)  (* 1 x7)  (* 1 x8)  (* 1 x9) ) 4284)  (<= (+  (* 9 x1)  (* 7 x2)  (* 4 x3)  (* 2 x4)  (* 2 x5)  (* 2 x6)  (* 1 x7)  (* 1 x8)  (* 1 x9) ) 4534)  (<= (+  (* 9 x1)  (* 7 x2)  (* 4 x3)  (* 2 x4)  (* 2 x5)  (* 2 x6)  (* 2 x7)  (* 1 x8)  (* 1 x9) ) 4572)  (<= (+  (* 9 x1)  (* 7 x2)  (* 4 x3)  (* 2 x4)  (* 2 x5)  (* 2 x6)  (* 2 x7)  (* 2 x8)  (* 1 x9) ) 4746)  (<= (+  (* 9 x1)  (* 8 x2)  (* 4 x3)  (* 2 x4)  (* 2 x5)  (* 2 x6)  (* 2 x7)  (* 2 x8)  (* 1 x9) ) 4788)  (<= (+  (* 10 x1)  (* 8 x2)  (* 4 x3)  (* 2 x4)  (* 2 x5)  (* 2 x6)  (* 2 x7)  (* 2 x8)  (* 1 x9) ) 4790) ) 
( or  (<= (+  (* 2 x1)  (* 2 x2)  (* 1 x3)  (* 1 x4)  (* 1 x5)  (* 1 x6)  (* 1 x7)  (* 1 x8)  (* 1 x9)  (* 1 x10) ) 1064)  (<= (+  (* 3 x1)  (* 2 x2)  (* 1 x3)  (* 1 x4)  (* 1 x5)  (* 1 x6)  (* 1 x7)  (* 1 x8)  (* 1 x9)  (* 1 x10) ) 1356)  (<= (+  (* 3 x1)  (* 3 x2)  (* 1 x3)  (* 1 x4)  (* 1 x5)  (* 1 x6)  (* 1 x7)  (* 1 x8)  (* 1 x9)  (* 1 x10) ) 1428)  (<= (+  (* 5 x1)  (* 4 x2)  (* 2 x3)  (* 1 x4)  (* 1 x5)  (* 1 x6)  (* 1 x7)  (* 1 x8)  (* 1 x9)  (* 1 x10) ) 2660)  (<= (+  (* 6 x1)  (* 4 x2)  (* 2 x3)  (* 1 x4)  (* 1 x5)  (* 1 x6)  (* 1 x7)  (* 1 x8)  (* 1 x9)  (* 1 x10) ) 2712)  (<= (+  (* 6 x1)  (* 5 x2)  (* 2 x3)  (* 1 x4)  (* 1 x5)  (* 1 x6)  (* 1 x7)  (* 1 x8)  (* 1 x9)  (* 1 x10) ) 2757)  (<= (+  (* 6 x1)  (* 5 x2)  (* 2 x3)  (* 2 x4)  (* 1 x5)  (* 1 x6)  (* 1 x7)  (* 1 x8)  (* 1 x9)  (* 1 x10) ) 2856)  (<= (+  (* 6 x1)  (* 5 x2)  (* 3 x3)  (* 2 x4)  (* 1 x5)  (* 1 x6)  (* 1 x7)  (* 1 x8)  (* 1 x9)  (* 1 x10) ) 3180)  (<= (+  (* 7 x1)  (* 6 x2)  (* 3 x3)  (* 2 x4)  (* 2 x5)  (* 1 x6)  (* 1 x7)  (* 1 x8)  (* 1 x9)  (* 1 x10) ) 3724)  (<= (+  (* 8 x1)  (* 6 x2)  (* 3 x3)  (* 2 x4)  (* 2 x5)  (* 1 x6)  (* 1 x7)  (* 1 x8)  (* 1 x9)  (* 1 x10) ) 4068)  (<= (+  (* 8 x1)  (* 7 x2)  (* 3 x3)  (* 2 x4)  (* 2 x5)  (* 1 x6)  (* 1 x7)  (* 1 x8)  (* 1 x9)  (* 1 x10) ) 4083)  (<= (+  (* 8 x1)  (* 7 x2)  (* 3 x3)  (* 2 x4)  (* 2 x5)  (* 2 x6)  (* 1 x7)  (* 1 x8)  (* 1 x9)  (* 1 x10) ) 4256)  (<= (+  (* 9 x1)  (* 7 x2)  (* 3 x3)  (* 2 x4)  (* 2 x5)  (* 2 x6)  (* 1 x7)  (* 1 x8)  (* 1 x9)  (* 1 x10) ) 4284)  (<= (+  (* 9 x1)  (* 7 x2)  (* 4 x3)  (* 2 x4)  (* 2 x5)  (* 2 x6)  (* 1 x7)  (* 1 x8)  (* 1 x9)  (* 1 x10) ) 4534)  (<= (+  (* 9 x1)  (* 7 x2)  (* 4 x3)  (* 2 x4)  (* 2 x5)  (* 2 x6)  (* 2 x7)  (* 1 x8)  (* 1 x9)  (* 1 x10) ) 4572)  (<= (+  (* 9 x1)  (* 7 x2)  (* 4 x3)  (* 2 x4)  (* 2 x5)  (* 2 x6)  (* 2 x7)  (* 2 x8)  (* 1 x9)  (* 1 x10) ) 4746)  (<= (+  (* 9 x1)  (* 8 x2)  (* 4 x3)  (* 2 x4)  (* 2 x5)  (* 2 x6)  (* 2 x7)  (* 2 x8)  (* 1 x9)  (* 1 x10) ) 4788)  (<= (+  (* 10 x1)  (* 8 x2)  (* 4 x3)  (* 2 x4)  (* 2 x5)  (* 2 x6)  (* 2 x7)  (* 2 x8)  (* 1 x9)  (* 1 x10) ) 4790)  (<= (+  (* 10 x1)  (* 8 x2)  (* 4 x3)  (* 2 x4)  (* 2 x5)  (* 2 x6)  (* 2 x7)  (* 2 x8)  (* 2 x9)  (* 1 x10) ) 4827) ) 
(>= x1 5) 
(>= x2 6) 
(>= x3 14) 
(>= x4 27) 
(>= x5 31) 
(>= x6 40) 
(>= x7 45) 
(>= x8 45) 
(>= x9 47) 
(>= x10 48) 
(<= x1 229) 
(<= x2 292) 
(<= x3 616) 
(<= x4 1189) 
(<= x5 1372) 
(<= x6 1761) 
(<= x7 1956) 
(<= x8 1972) 
(<= x9 2066) 
(<= x10 2082) ))
(check-sat)
(exit)
